docs/duality/true-dual-tract/chunks/chunk-06.fzn
% Generated by MiniZinc 2.9.3
% Solver library: /opt/minizinc-ide/share/minizinc/gecode
% Command line invocation: minizinc --solver gecode --compile /home/m0xu/1-projects/synapse/docs/duality/true-dual-tract/chunks/chunk-06.mzn 

array [1..8] of int: X_INTRODUCED_9_ = [1,1,1,1,1,1,1,1];
array [1..3] of int: X_INTRODUCED_12_ = [-1,-1,-1];
array [1..8] of int: X_INTRODUCED_15_ = [-1,-1,-1,-1,1,1,1,1];
var 3..100: X_INTRODUCED_0_;
var 3..100: X_INTRODUCED_1_;
var 3..100: X_INTRODUCED_2_;
var 3..100: X_INTRODUCED_3_;
var 0..100: X_INTRODUCED_4_;
var 0..100: X_INTRODUCED_5_;
var 0..100: X_INTRODUCED_6_;
var 0..100: X_INTRODUCED_7_;
array [1..8] of var int: x:: output_array([1..8]) = [X_INTRODUCED_0_,X_INTRODUCED_1_,X_INTRODUCED_2_,X_INTRODUCED_3_,X_INTRODUCED_4_,X_INTRODUCED_5_,X_INTRODUCED_6_,X_INTRODUCED_7_];
constraint int_lin_eq(X_INTRODUCED_9_,[X_INTRODUCED_0_,X_INTRODUCED_1_,X_INTRODUCED_2_,X_INTRODUCED_3_,X_INTRODUCED_4_,X_INTRODUCED_5_,X_INTRODUCED_6_,X_INTRODUCED_7_],100);
constraint int_lin_le(X_INTRODUCED_12_,[X_INTRODUCED_1_,X_INTRODUCED_0_,X_INTRODUCED_2_],-30);
constraint int_lin_le(X_INTRODUCED_15_,[X_INTRODUCED_0_,X_INTRODUCED_1_,X_INTRODUCED_2_,X_INTRODUCED_3_,X_INTRODUCED_4_,X_INTRODUCED_5_,X_INTRODUCED_6_,X_INTRODUCED_7_],0);
solve  satisfy;
