docs/duality/true-dual-tract/chunks/chunk-06.ozn
output ["x = ",showDzn(x),";\n"];
array [1..8] of int: x;
